# Solution for model r5_t18_m0_0
# Finished Task: 18 / 18
# Makespan: 591.0, Total Distance: 327.0, Total Time: 15.8548
# R O S F
0 0 18 0.0 0.0
1 1 21 0.0 0.0
2 2 22 0.0 0.0
3 3 8 1.0 1.0
4 4 12 0.0 0.0
5 3 11 130.0 164.0
6 4 -1 554.0 581.0
7 2 14 347.0 376.0
8 3 5 75.0 100.0
9 2 15 545.0 570.0
10 2 9 463.0 501.0
11 3 13 389.0 418.0
12 4 6 501.0 522.0
13 3 16 442.0 462.0
14 2 10 430.0 463.0
15 2 -1 570.0 591.0
16 3 20 474.0 499.0
17 2 7 294.0 320.0
18 0 -1 486.0 512.0
19 1 -1 404.0 442.0
20 3 -1 552.0 591.0
21 1 19 366.0 392.0
22 2 17 228.0 265.0
